Applied-computational-engines/ex7/alloy.lp
min: 15*x0 7*x1 20*x2 10*x3 15*x4;
1*x0 1*x1 1*x2 1*x3 1*x4 = 1;
100*x0 92*x1 85*x2 95*x3 85*x4 <= 92;
100*x0 92*x1 85*x2 95*x3 85*x4 >= 87;
0*x0 3*x1 3*x2 1*x3 0*x4 >= 2;
0*x0 3*x1 3*x2 1*x3 0*x4 <= 3;
0*x0 2*x1 4*x2 2*x3 1*x4 >= 1;
0*x0 2*x1 4*x2 2*x3 1*x4 <= 3;
0*x0 0*x1 7*x2 2*x3 4*x4 >= 2;
0*x0 0*x1 7*x2 2*x3 4*x4 <= 4;
0*x0 3*x1 0*x2 0*x3 10*x4 >= 1;
0*x0 3*x1 0*x2 0*x3 10*x4 <= 4;
