Applied-computational-engines/ex7/alloy.lp.solution

Value of objective function: 10.42857143

Actual values of the variables:
x0                              0
x1                       0.428571
x2                       0.171429
x3                            0.4
x4                              0
